c " random instance " 
p edges 200 4163
e 1 13
e 1 15
e 1 18
e 1 22
e 1 26
e 1 31
e 1 33
e 1 35
e 1 41
e 1 42
e 1 44
e 1 63
e 1 64
e 1 68
e 1 98
e 1 99
e 1 100
e 1 103
e 1 113
e 1 115
e 1 117
e 1 120
e 1 123
e 1 126
e 1 132
e 1 133
e 1 137
e 1 143
e 1 147
e 1 148
e 1 165
e 1 166
e 1 174
e 1 175
e 1 185
e 2 3
e 2 8
e 2 10
e 2 13
e 2 33
e 2 37
e 2 38
e 2 43
e 2 47
e 2 49
e 2 52
e 2 55
e 2 62
e 2 69
e 2 72
e 2 74
e 2 76
e 2 78
e 2 87
e 2 90
e 2 96
e 2 102
e 2 106
e 2 112
e 2 115
e 2 119
e 2 128
e 2 135
e 2 139
e 2 140
e 2 148
e 2 149
e 2 153
e 2 156
e 2 159
e 2 160
e 2 175
e 2 178
e 2 179
e 2 184
e 2 185
e 2 186
e 2 187
e 2 193
e 3 4
e 3 10
e 3 13
e 3 20
e 3 32
e 3 39
e 3 49
e 3 51
e 3 52
e 3 63
e 3 66
e 3 75
e 3 76
e 3 89
e 3 91
e 3 93
e 3 95
e 3 99
e 3 108
e 3 112
e 3 130
e 3 135
e 3 137
e 3 142
e 3 147
e 3 156
e 3 157
e 3 159
e 3 163
e 3 165
e 3 167
e 3 170
e 3 174
e 3 177
e 3 181
e 3 187
e 3 192
e 4 9
e 4 11
e 4 17
e 4 20
e 4 23
e 4 39
e 4 43
e 4 50
e 4 51
e 4 52
e 4 56
e 4 58
e 4 62
e 4 68
e 4 72
e 4 79
e 4 80
e 4 85
e 4 93
e 4 99
e 4 104
e 4 115
e 4 118
e 4 127
e 4 135
e 4 142
e 4 148
e 4 153
e 4 154
e 4 159
e 4 165
e 4 166
e 4 172
e 4 174
e 4 180
e 4 183
e 4 188
e 4 190
e 4 196
e 5 6
e 5 7
e 5 13
e 5 14
e 5 15
e 5 18
e 5 26
e 5 28
e 5 29
e 5 31
e 5 32
e 5 34
e 5 37
e 5 47
e 5 48
e 5 51
e 5 52
e 5 54
e 5 58
e 5 61
e 5 64
e 5 65
e 5 77
e 5 82
e 5 83
e 5 86
e 5 88
e 5 89
e 5 90
e 5 100
e 5 103
e 5 106
e 5 108
e 5 109
e 5 111
e 5 113
e 5 115
e 5 122
e 5 127
e 5 139
e 5 148
e 5 149
e 5 162
e 5 163
e 5 168
e 5 169
e 5 178
e 5 183
e 5 200
e 6 17
e 6 18
e 6 21
e 6 22
e 6 26
e 6 34
e 6 37
e 6 38
e 6 42
e 6 47
e 6 51
e 6 53
e 6 56
e 6 58
e 6 60
e 6 61
e 6 62
e 6 66
e 6 71
e 6 79
e 6 80
e 6 84
e 6 86
e 6 87
e 6 93
e 6 95
e 6 96
e 6 105
e 6 108
e 6 114
e 6 120
e 6 123
e 6 126
e 6 127
e 6 134
e 6 135
e 6 146
e 6 168
e 6 176
e 6 179
e 6 182
e 6 185
e 6 187
e 6 188
e 6 193
e 6 195
e 6 196
e 6 200
e 7 11
e 7 23
e 7 27
e 7 30
e 7 35
e 7 37
e 7 44
e 7 47
e 7 49
e 7 53
e 7 55
e 7 58
e 7 63
e 7 64
e 7 68
e 7 73
e 7 77
e 7 80
e 7 84
e 7 88
e 7 90
e 7 91
e 7 92
e 7 95
e 7 96
e 7 108
e 7 117
e 7 122
e 7 134
e 7 141
e 7 144
e 7 145
e 7 146
e 7 147
e 7 148
e 7 152
e 7 154
e 7 160
e 7 161
e 7 163
e 7 165
e 7 170
e 7 174
e 7 176
e 7 181
e 7 190
e 7 198
e 8 15
e 8 32
e 8 49
e 8 54
e 8 55
e 8 62
e 8 66
e 8 70
e 8 74
e 8 75
e 8 85
e 8 91
e 8 94
e 8 96
e 8 97
e 8 103
e 8 104
e 8 109
e 8 113
e 8 114
e 8 116
e 8 126
e 8 128
e 8 135
e 8 136
e 8 137
e 8 138
e 8 140
e 8 141
e 8 144
e 8 155
e 8 156
e 8 162
e 8 165
e 8 170
e 8 185
e 8 190
e 8 193
e 8 195
e 8 197
e 8 200
e 9 10
e 9 16
e 9 20
e 9 23
e 9 32
e 9 34
e 9 36
e 9 41
e 9 44
e 9 46
e 9 55
e 9 60
e 9 62
e 9 66
e 9 70
e 9 71
e 9 72
e 9 88
e 9 91
e 9 96
e 9 100
e 9 104
e 9 108
e 9 111
e 9 112
e 9 114
e 9 118
e 9 121
e 9 124
e 9 125
e 9 149
e 9 152
e 9 158
e 9 164
e 9 172
e 9 175
e 9 177
e 9 194
e 9 195
e 9 198
e 10 13
e 10 21
e 10 22
e 10 31
e 10 41
e 10 42
e 10 44
e 10 46
e 10 47
e 10 48
e 10 60
e 10 70
e 10 78
e 10 81
e 10 83
e 10 89
e 10 92
e 10 109
e 10 116
e 10 121
e 10 122
e 10 123
e 10 130
e 10 133
e 10 136
e 10 137
e 10 145
e 10 155
e 10 165
e 10 167
e 10 169
e 10 173
e 10 174
e 10 184
e 10 186
e 10 191
e 10 195
e 10 198
e 11 15
e 11 18
e 11 19
e 11 20
e 11 25
e 11 28
e 11 32
e 11 43
e 11 45
e 11 46
e 11 52
e 11 55
e 11 60
e 11 61
e 11 65
e 11 72
e 11 75
e 11 79
e 11 85
e 11 99
e 11 105
e 11 109
e 11 113
e 11 114
e 11 119
e 11 129
e 11 140
e 11 150
e 11 151
e 11 153
e 11 175
e 11 176
e 11 186
e 11 189
e 12 15
e 12 24
e 12 26
e 12 34
e 12 36
e 12 39
e 12 40
e 12 41
e 12 47
e 12 49
e 12 56
e 12 65
e 12 72
e 12 73
e 12 77
e 12 81
e 12 83
e 12 87
e 12 90
e 12 91
e 12 94
e 12 96
e 12 100
e 12 107
e 12 115
e 12 119
e 12 126
e 12 153
e 12 160
e 12 163
e 12 164
e 12 165
e 12 167
e 12 170
e 12 172
e 12 175
e 12 180
e 12 188
e 12 191
e 12 194
e 12 196
e 12 198
e 12 199
e 12 200
e 13 14
e 13 41
e 13 43
e 13 44
e 13 51
e 13 59
e 13 61
e 13 62
e 13 69
e 13 77
e 13 87
e 13 89
e 13 94
e 13 97
e 13 103
e 13 104
e 13 108
e 13 112
e 13 116
e 13 123
e 13 124
e 13 125
e 13 128
e 13 131
e 13 147
e 13 148
e 13 157
e 13 163
e 13 169
e 13 184
e 13 186
e 13 191
e 13 200
e 14 15
e 14 22
e 14 30
e 14 31
e 14 34
e 14 40
e 14 42
e 14 45
e 14 55
e 14 65
e 14 68
e 14 69
e 14 75
e 14 84
e 14 85
e 14 86
e 14 89
e 14 90
e 14 102
e 14 107
e 14 108
e 14 115
e 14 119
e 14 127
e 14 138
e 14 139
e 14 146
e 14 147
e 14 148
e 14 150
e 14 160
e 14 164
e 14 171
e 14 179
e 14 183
e 14 184
e 14 185
e 14 193
e 14 196
e 14 197
e 15 28
e 15 32
e 15 34
e 15 40
e 15 41
e 15 42
e 15 43
e 15 61
e 15 63
e 15 66
e 15 68
e 15 69
e 15 70
e 15 71
e 15 94
e 15 96
e 15 98
e 15 105
e 15 107
e 15 108
e 15 110
e 15 115
e 15 119
e 15 120
e 15 121
e 15 124
e 15 130
e 15 132
e 15 139
e 15 146
e 15 163
e 15 171
e 15 176
e 15 187
e 15 190
e 16 32
e 16 47
e 16 48
e 16 51
e 16 72
e 16 76
e 16 79
e 16 85
e 16 87
e 16 91
e 16 92
e 16 100
e 16 103
e 16 105
e 16 110
e 16 114
e 16 119
e 16 124
e 16 128
e 16 133
e 16 137
e 16 140
e 16 145
e 16 153
e 16 156
e 16 157
e 16 158
e 16 177
e 16 179
e 16 185
e 16 186
e 16 188
e 16 194
e 16 195
e 17 20
e 17 23
e 17 24
e 17 42
e 17 43
e 17 52
e 17 55
e 17 58
e 17 59
e 17 61
e 17 62
e 17 66
e 17 71
e 17 72
e 17 77
e 17 96
e 17 97
e 17 100
e 17 102
e 17 108
e 17 114
e 17 117
e 17 124
e 17 125
e 17 127
e 17 128
e 17 133
e 17 139
e 17 142
e 17 149
e 17 150
e 17 151
e 17 164
e 17 173
e 17 181
e 17 182
e 17 184
e 17 185
e 17 190
e 17 195
e 17 199
e 17 200
e 18 21
e 18 22
e 18 28
e 18 32
e 18 33
e 18 34
e 18 36
e 18 38
e 18 41
e 18 45
e 18 49
e 18 50
e 18 51
e 18 52
e 18 55
e 18 59
e 18 63
e 18 67
e 18 69
e 18 72
e 18 77
e 18 78
e 18 82
e 18 83
e 18 90
e 18 102
e 18 105
e 18 110
e 18 115
e 18 120
e 18 122
e 18 126
e 18 129
e 18 134
e 18 139
e 18 142
e 18 148
e 18 152
e 18 162
e 18 163
e 18 164
e 18 169
e 18 171
e 18 176
e 18 177
e 18 181
e 18 184
e 18 186
e 18 192
e 19 20
e 19 23
e 19 29
e 19 32
e 19 39
e 19 53
e 19 54
e 19 56
e 19 61
e 19 65
e 19 75
e 19 79
e 19 80
e 19 84
e 19 85
e 19 89
e 19 94
e 19 102
e 19 108
e 19 117
e 19 122
e 19 123
e 19 125
e 19 126
e 19 127
e 19 130
e 19 133
e 19 137
e 19 139
e 19 142
e 19 143
e 19 144
e 19 148
e 19 153
e 19 162
e 19 170
e 19 173
e 19 174
e 19 179
e 19 181
e 19 182
e 19 183
e 19 185
e 19 187
e 19 195
e 19 197
e 19 198
e 20 21
e 20 24
e 20 35
e 20 38
e 20 46
e 20 51
e 20 56
e 20 57
e 20 59
e 20 61
e 20 68
e 20 69
e 20 70
e 20 79
e 20 83
e 20 91
e 20 100
e 20 107
e 20 127
e 20 132
e 20 137
e 20 138
e 20 143
e 20 144
e 20 147
e 20 148
e 20 150
e 20 154
e 20 158
e 20 159
e 20 160
e 20 165
e 20 170
e 20 171
e 20 176
e 20 188
e 20 189
e 21 26
e 21 30
e 21 33
e 21 36
e 21 39
e 21 42
e 21 47
e 21 49
e 21 55
e 21 61
e 21 67
e 21 68
e 21 69
e 21 70
e 21 76
e 21 81
e 21 83
e 21 84
e 21 92
e 21 96
e 21 101
e 21 102
e 21 106
e 21 109
e 21 110
e 21 112
e 21 118
e 21 119
e 21 126
e 21 131
e 21 135
e 21 141
e 21 142
e 21 145
e 21 148
e 21 150
e 21 160
e 21 162
e 21 175
e 21 194
e 21 197
e 22 26
e 22 29
e 22 31
e 22 33
e 22 35
e 22 36
e 22 40
e 22 47
e 22 49
e 22 51
e 22 55
e 22 58
e 22 61
e 22 63
e 22 67
e 22 68
e 22 69
e 22 74
e 22 76
e 22 78
e 22 83
e 22 84
e 22 94
e 22 97
e 22 99
e 22 100
e 22 103
e 22 105
e 22 111
e 22 116
e 22 118
e 22 121
e 22 136
e 22 142
e 22 149
e 22 152
e 22 153
e 22 164
e 22 173
e 22 178
e 22 180
e 22 181
e 22 183
e 22 190
e 22 191
e 22 194
e 22 198
e 23 26
e 23 49
e 23 52
e 23 59
e 23 62
e 23 70
e 23 82
e 23 101
e 23 102
e 23 106
e 23 113
e 23 119
e 23 121
e 23 123
e 23 138
e 23 141
e 23 142
e 23 145
e 23 147
e 23 156
e 23 158
e 23 161
e 23 162
e 23 163
e 23 170
e 23 171
e 23 175
e 23 178
e 23 179
e 23 187
e 23 194
e 23 199
e 24 25
e 24 29
e 24 30
e 24 50
e 24 55
e 24 58
e 24 61
e 24 67
e 24 69
e 24 86
e 24 96
e 24 104
e 24 114
e 24 115
e 24 119
e 24 127
e 24 128
e 24 130
e 24 132
e 24 138
e 24 144
e 24 147
e 24 150
e 24 152
e 24 154
e 24 161
e 24 165
e 24 167
e 24 176
e 24 184
e 24 186
e 24 188
e 24 195
e 24 197
e 25 28
e 25 42
e 25 47
e 25 51
e 25 58
e 25 59
e 25 70
e 25 72
e 25 83
e 25 94
e 25 103
e 25 104
e 25 120
e 25 124
e 25 125
e 25 128
e 25 129
e 25 134
e 25 150
e 25 154
e 25 162
e 25 163
e 25 176
e 25 181
e 25 182
e 25 186
e 25 190
e 25 191
e 26 32
e 26 33
e 26 38
e 26 39
e 26 44
e 26 47
e 26 50
e 26 52
e 26 58
e 26 60
e 26 63
e 26 80
e 26 83
e 26 84
e 26 87
e 26 88
e 26 90
e 26 91
e 26 96
e 26 119
e 26 125
e 26 126
e 26 127
e 26 129
e 26 137
e 26 142
e 26 144
e 26 150
e 26 156
e 26 158
e 26 159
e 26 161
e 26 162
e 26 166
e 26 171
e 26 175
e 26 178
e 26 182
e 26 186
e 26 194
e 26 197
e 26 199
e 27 28
e 27 29
e 27 33
e 27 41
e 27 42
e 27 47
e 27 49
e 27 59
e 27 64
e 27 67
e 27 70
e 27 72
e 27 74
e 27 79
e 27 82
e 27 83
e 27 84
e 27 86
e 27 87
e 27 93
e 27 95
e 27 96
e 27 104
e 27 105
e 27 106
e 27 108
e 27 110
e 27 115
e 27 123
e 27 124
e 27 135
e 27 140
e 27 144
e 27 151
e 27 155
e 27 156
e 27 162
e 27 164
e 27 165
e 27 170
e 27 174
e 27 186
e 27 192
e 28 29
e 28 32
e 28 33
e 28 41
e 28 45
e 28 49
e 28 50
e 28 53
e 28 55
e 28 61
e 28 69
e 28 71
e 28 73
e 28 81
e 28 82
e 28 85
e 28 91
e 28 92
e 28 97
e 28 98
e 28 99
e 28 103
e 28 104
e 28 106
e 28 108
e 28 112
e 28 114
e 28 118
e 28 122
e 28 125
e 28 128
e 28 133
e 28 135
e 28 153
e 28 155
e 28 157
e 28 160
e 28 176
e 28 177
e 28 179
e 28 192
e 28 200
e 29 34
e 29 37
e 29 42
e 29 43
e 29 47
e 29 52
e 29 59
e 29 60
e 29 68
e 29 69
e 29 70
e 29 73
e 29 77
e 29 81
e 29 86
e 29 93
e 29 101
e 29 102
e 29 103
e 29 110
e 29 111
e 29 118
e 29 123
e 29 131
e 29 132
e 29 133
e 29 137
e 29 139
e 29 143
e 29 145
e 29 149
e 29 150
e 29 156
e 29 160
e 29 164
e 29 165
e 29 166
e 29 167
e 29 178
e 29 179
e 29 180
e 29 189
e 29 190
e 29 192
e 29 197
e 30 35
e 30 40
e 30 44
e 30 55
e 30 57
e 30 63
e 30 69
e 30 87
e 30 89
e 30 91
e 30 94
e 30 97
e 30 100
e 30 106
e 30 111
e 30 112
e 30 119
e 30 122
e 30 124
e 30 126
e 30 135
e 30 142
e 30 148
e 30 153
e 30 158
e 30 160
e 30 169
e 30 171
e 30 175
e 30 181
e 30 186
e 30 197
e 30 199
e 30 200
e 31 34
e 31 35
e 31 36
e 31 41
e 31 47
e 31 61
e 31 66
e 31 69
e 31 75
e 31 80
e 31 83
e 31 85
e 31 88
e 31 91
e 31 95
e 31 99
e 31 103
e 31 104
e 31 108
e 31 113
e 31 116
e 31 126
e 31 129
e 31 147
e 31 151
e 31 152
e 31 155
e 31 158
e 31 176
e 31 183
e 31 189
e 31 192
e 31 195
e 32 53
e 32 55
e 32 59
e 32 65
e 32 67
e 32 70
e 32 76
e 32 77
e 32 81
e 32 83
e 32 84
e 32 90
e 32 93
e 32 99
e 32 113
e 32 119
e 32 127
e 32 128
e 32 130
e 32 135
e 32 136
e 32 137
e 32 139
e 32 141
e 32 142
e 32 145
e 32 146
e 32 148
e 32 156
e 32 159
e 32 164
e 32 171
e 32 172
e 32 173
e 32 174
e 32 176
e 32 181
e 32 184
e 32 190
e 32 192
e 32 197
e 33 42
e 33 50
e 33 52
e 33 55
e 33 71
e 33 74
e 33 79
e 33 81
e 33 86
e 33 87
e 33 89
e 33 98
e 33 110
e 33 113
e 33 139
e 33 141
e 33 143
e 33 145
e 33 147
e 33 164
e 33 183
e 33 184
e 33 186
e 33 193
e 34 35
e 34 55
e 34 56
e 34 63
e 34 64
e 34 67
e 34 73
e 34 74
e 34 83
e 34 85
e 34 86
e 34 90
e 34 96
e 34 101
e 34 105
e 34 109
e 34 115
e 34 118
e 34 121
e 34 123
e 34 132
e 34 137
e 34 144
e 34 146
e 34 155
e 34 160
e 34 161
e 34 164
e 34 165
e 34 167
e 34 169
e 34 173
e 34 174
e 34 175
e 34 176
e 34 177
e 34 180
e 34 182
e 34 184
e 34 189
e 34 195
e 34 200
e 35 46
e 35 51
e 35 57
e 35 67
e 35 70
e 35 72
e 35 74
e 35 79
e 35 83
e 35 87
e 35 88
e 35 89
e 35 91
e 35 94
e 35 110
e 35 118
e 35 119
e 35 129
e 35 131
e 35 137
e 35 140
e 35 148
e 35 155
e 35 156
e 35 167
e 35 170
e 35 171
e 35 200
e 36 45
e 36 50
e 36 58
e 36 63
e 36 64
e 36 68
e 36 86
e 36 88
e 36 91
e 36 93
e 36 94
e 36 95
e 36 106
e 36 109
e 36 110
e 36 113
e 36 116
e 36 120
e 36 123
e 36 128
e 36 135
e 36 137
e 36 153
e 36 156
e 36 161
e 36 169
e 36 172
e 36 173
e 36 174
e 36 185
e 36 191
e 36 192
e 36 194
e 37 39
e 37 43
e 37 44
e 37 50
e 37 51
e 37 55
e 37 59
e 37 61
e 37 68
e 37 69
e 37 70
e 37 73
e 37 86
e 37 89
e 37 90
e 37 96
e 37 99
e 37 109
e 37 112
e 37 116
e 37 119
e 37 129
e 37 130
e 37 132
e 37 138
e 37 141
e 37 145
e 37 148
e 37 151
e 37 152
e 37 161
e 37 162
e 37 166
e 37 170
e 37 171
e 37 179
e 37 180
e 37 183
e 37 185
e 37 197
e 37 199
e 38 39
e 38 43
e 38 49
e 38 52
e 38 57
e 38 61
e 38 70
e 38 76
e 38 85
e 38 100
e 38 101
e 38 104
e 38 110
e 38 113
e 38 119
e 38 120
e 38 121
e 38 123
e 38 124
e 38 125
e 38 128
e 38 140
e 38 141
e 38 145
e 38 147
e 38 148
e 38 163
e 38 176
e 38 178
e 38 179
e 38 181
e 38 184
e 38 185
e 38 200
e 39 41
e 39 48
e 39 51
e 39 52
e 39 55
e 39 56
e 39 59
e 39 60
e 39 65
e 39 66
e 39 67
e 39 71
e 39 74
e 39 76
e 39 83
e 39 100
e 39 101
e 39 111
e 39 114
e 39 115
e 39 118
e 39 124
e 39 126
e 39 129
e 39 131
e 39 134
e 39 135
e 39 138
e 39 140
e 39 141
e 39 144
e 39 146
e 39 149
e 39 160
e 39 164
e 39 165
e 39 167
e 39 174
e 39 182
e 39 196
e 39 197
e 40 43
e 40 53
e 40 54
e 40 59
e 40 62
e 40 70
e 40 74
e 40 78
e 40 87
e 40 88
e 40 89
e 40 91
e 40 95
e 40 99
e 40 106
e 40 108
e 40 111
e 40 121
e 40 125
e 40 126
e 40 128
e 40 135
e 40 138
e 40 139
e 40 140
e 40 146
e 40 149
e 40 157
e 40 159
e 40 166
e 40 173
e 40 174
e 40 177
e 40 187
e 40 189
e 40 194
e 40 197
e 41 43
e 41 51
e 41 52
e 41 59
e 41 61
e 41 68
e 41 72
e 41 75
e 41 78
e 41 80
e 41 90
e 41 92
e 41 95
e 41 99
e 41 106
e 41 115
e 41 116
e 41 118
e 41 123
e 41 128
e 41 129
e 41 133
e 41 134
e 41 150
e 41 155
e 41 159
e 41 167
e 41 170
e 41 175
e 41 176
e 41 182
e 42 69
e 42 73
e 42 74
e 42 82
e 42 93
e 42 96
e 42 98
e 42 101
e 42 103
e 42 106
e 42 108
e 42 111
e 42 112
e 42 114
e 42 121
e 42 129
e 42 134
e 42 135
e 42 136
e 42 142
e 42 143
e 42 150
e 42 158
e 42 163
e 42 168
e 42 170
e 42 174
e 42 188
e 42 192
e 42 198
e 43 49
e 43 60
e 43 69
e 43 83
e 43 86
e 43 87
e 43 91
e 43 92
e 43 94
e 43 95
e 43 101
e 43 104
e 43 106
e 43 107
e 43 109
e 43 114
e 43 119
e 43 125
e 43 127
e 43 129
e 43 133
e 43 134
e 43 135
e 43 148
e 43 158
e 43 171
e 43 182
e 43 185
e 43 192
e 44 58
e 44 60
e 44 63
e 44 70
e 44 71
e 44 77
e 44 82
e 44 89
e 44 92
e 44 93
e 44 95
e 44 109
e 44 112
e 44 117
e 44 123
e 44 124
e 44 137
e 44 142
e 44 145
e 44 151
e 44 154
e 44 155
e 44 157
e 44 160
e 44 166
e 44 169
e 44 177
e 44 185
e 44 189
e 44 195
e 44 199
e 44 200
e 45 53
e 45 58
e 45 61
e 45 63
e 45 72
e 45 83
e 45 86
e 45 87
e 45 109
e 45 110
e 45 112
e 45 116
e 45 119
e 45 121
e 45 126
e 45 129
e 45 133
e 45 135
e 45 144
e 45 152
e 45 153
e 45 154
e 45 155
e 45 164
e 45 167
e 45 170
e 45 175
e 45 177
e 45 178
e 45 180
e 45 182
e 45 196
e 45 200
e 46 47
e 46 48
e 46 54
e 46 63
e 46 68
e 46 77
e 46 85
e 46 87
e 46 89
e 46 90
e 46 94
e 46 97
e 46 100
e 46 101
e 46 110
e 46 112
e 46 116
e 46 117
e 46 119
e 46 120
e 46 123
e 46 129
e 46 133
e 46 134
e 46 137
e 46 148
e 46 153
e 46 155
e 46 167
e 46 174
e 46 179
e 46 181
e 46 182
e 46 185
e 46 186
e 46 187
e 46 190
e 46 192
e 47 65
e 47 79
e 47 81
e 47 82
e 47 84
e 47 88
e 47 92
e 47 93
e 47 95
e 47 97
e 47 103
e 47 112
e 47 113
e 47 116
e 47 117
e 47 129
e 47 131
e 47 149
e 47 150
e 47 155
e 47 170
e 47 172
e 47 175
e 47 178
e 47 181
e 47 193
e 47 197
e 48 51
e 48 58
e 48 61
e 48 64
e 48 69
e 48 73
e 48 80
e 48 82
e 48 90
e 48 119
e 48 120
e 48 126
e 48 135
e 48 137
e 48 141
e 48 145
e 48 161
e 48 167
e 48 171
e 48 176
e 48 178
e 48 181
e 48 186
e 49 55
e 49 56
e 49 64
e 49 70
e 49 72
e 49 74
e 49 80
e 49 81
e 49 85
e 49 94
e 49 104
e 49 107
e 49 114
e 49 120
e 49 126
e 49 129
e 49 130
e 49 131
e 49 134
e 49 140
e 49 148
e 49 154
e 49 155
e 49 159
e 49 165
e 49 166
e 49 176
e 49 177
e 49 179
e 49 187
e 49 190
e 49 191
e 49 197
e 50 51
e 50 62
e 50 81
e 50 85
e 50 86
e 50 89
e 50 90
e 50 94
e 50 98
e 50 111
e 50 114
e 50 119
e 50 125
e 50 131
e 50 135
e 50 154
e 50 161
e 50 164
e 50 170
e 50 178
e 50 180
e 50 182
e 50 183
e 50 186
e 50 195
e 51 52
e 51 59
e 51 65
e 51 66
e 51 82
e 51 85
e 51 91
e 51 92
e 51 93
e 51 94
e 51 102
e 51 103
e 51 104
e 51 106
e 51 107
e 51 110
e 51 112
e 51 117
e 51 118
e 51 124
e 51 126
e 51 128
e 51 142
e 51 147
e 51 155
e 51 167
e 51 183
e 51 186
e 51 187
e 52 53
e 52 56
e 52 59
e 52 62
e 52 65
e 52 71
e 52 81
e 52 82
e 52 84
e 52 86
e 52 89
e 52 90
e 52 94
e 52 95
e 52 96
e 52 97
e 52 101
e 52 109
e 52 115
e 52 120
e 52 125
e 52 135
e 52 143
e 52 148
e 52 153
e 52 156
e 52 157
e 52 160
e 52 169
e 52 175
e 52 186
e 52 187
e 52 191
e 53 55
e 53 56
e 53 57
e 53 60
e 53 73
e 53 78
e 53 88
e 53 107
e 53 117
e 53 121
e 53 139
e 53 141
e 53 145
e 53 149
e 53 163
e 53 166
e 53 169
e 53 170
e 53 173
e 53 179
e 53 188
e 53 191
e 54 60
e 54 71
e 54 75
e 54 78
e 54 79
e 54 93
e 54 105
e 54 106
e 54 109
e 54 112
e 54 115
e 54 120
e 54 124
e 54 126
e 54 130
e 54 134
e 54 135
e 54 138
e 54 162
e 54 169
e 54 170
e 54 172
e 54 176
e 54 179
e 54 180
e 54 186
e 54 191
e 54 196
e 54 197
e 55 60
e 55 62
e 55 64
e 55 65
e 55 66
e 55 68
e 55 71
e 55 80
e 55 82
e 55 83
e 55 87
e 55 88
e 55 91
e 55 98
e 55 99
e 55 107
e 55 108
e 55 121
e 55 124
e 55 127
e 55 128
e 55 134
e 55 141
e 55 142
e 55 143
e 55 147
e 55 156
e 55 161
e 55 162
e 55 168
e 55 169
e 55 172
e 55 173
e 55 181
e 55 184
e 55 185
e 55 191
e 55 197
e 56 58
e 56 63
e 56 64
e 56 84
e 56 93
e 56 102
e 56 108
e 56 110
e 56 111
e 56 124
e 56 136
e 56 138
e 56 141
e 56 145
e 56 147
e 56 151
e 56 160
e 56 161
e 56 166
e 56 183
e 56 197
e 56 198
e 57 69
e 57 77
e 57 79
e 57 99
e 57 104
e 57 107
e 57 112
e 57 116
e 57 122
e 57 125
e 57 127
e 57 134
e 57 153
e 57 154
e 57 161
e 57 173
e 57 175
e 57 180
e 57 185
e 57 188
e 57 192
e 57 200
e 58 59
e 58 68
e 58 71
e 58 84
e 58 85
e 58 87
e 58 90
e 58 92
e 58 96
e 58 101
e 58 104
e 58 105
e 58 110
e 58 113
e 58 115
e 58 116
e 58 119
e 58 124
e 58 126
e 58 129
e 58 132
e 58 139
e 58 143
e 58 144
e 58 152
e 58 154
e 58 157
e 58 158
e 58 162
e 58 167
e 58 178
e 58 180
e 58 183
e 58 190
e 58 193
e 59 69
e 59 75
e 59 110
e 59 111
e 59 116
e 59 117
e 59 121
e 59 122
e 59 125
e 59 132
e 59 139
e 59 142
e 59 145
e 59 149
e 59 151
e 59 153
e 59 154
e 59 155
e 59 156
e 59 159
e 59 174
e 59 183
e 59 190
e 59 193
e 59 196
e 59 197
e 59 198
e 60 61
e 60 65
e 60 76
e 60 79
e 60 81
e 60 89
e 60 90
e 60 100
e 60 110
e 60 113
e 60 115
e 60 117
e 60 118
e 60 123
e 60 125
e 60 135
e 60 138
e 60 143
e 60 144
e 60 153
e 60 169
e 60 182
e 60 188
e 60 194
e 60 196
e 61 65
e 61 76
e 61 99
e 61 103
e 61 112
e 61 122
e 61 124
e 61 131
e 61 135
e 61 144
e 61 153
e 61 155
e 61 157
e 61 159
e 61 160
e 61 162
e 61 168
e 61 177
e 61 182
e 61 185
e 61 186
e 61 194
e 62 63
e 62 67
e 62 71
e 62 81
e 62 82
e 62 95
e 62 96
e 62 98
e 62 101
e 62 103
e 62 110
e 62 111
e 62 113
e 62 116
e 62 127
e 62 129
e 62 131
e 62 132
e 62 136
e 62 139
e 62 148
e 62 163
e 62 165
e 62 177
e 62 181
e 62 187
e 62 190
e 62 194
e 63 64
e 63 74
e 63 79
e 63 82
e 63 84
e 63 85
e 63 90
e 63 91
e 63 92
e 63 93
e 63 97
e 63 107
e 63 110
e 63 111
e 63 112
e 63 115
e 63 117
e 63 118
e 63 122
e 63 127
e 63 129
e 63 135
e 63 149
e 63 159
e 63 160
e 63 173
e 63 174
e 63 183
e 63 187
e 63 192
e 64 69
e 64 71
e 64 72
e 64 73
e 64 74
e 64 76
e 64 88
e 64 90
e 64 101
e 64 109
e 64 117
e 64 131
e 64 132
e 64 134
e 64 137
e 64 140
e 64 144
e 64 150
e 64 151
e 64 153
e 64 154
e 64 155
e 64 168
e 64 170
e 64 173
e 64 179
e 64 181
e 64 191
e 65 68
e 65 71
e 65 72
e 65 74
e 65 85
e 65 88
e 65 90
e 65 91
e 65 100
e 65 112
e 65 121
e 65 126
e 65 131
e 65 138
e 65 145
e 65 151
e 65 153
e 65 154
e 65 156
e 65 167
e 65 181
e 65 184
e 65 185
e 65 189
e 65 199
e 66 71
e 66 72
e 66 79
e 66 81
e 66 83
e 66 88
e 66 92
e 66 95
e 66 102
e 66 103
e 66 109
e 66 118
e 66 123
e 66 130
e 66 131
e 66 134
e 66 136
e 66 138
e 66 143
e 66 147
e 66 156
e 66 177
e 66 186
e 66 187
e 66 189
e 66 194
e 67 68
e 67 71
e 67 73
e 67 79
e 67 80
e 67 82
e 67 106
e 67 116
e 67 119
e 67 122
e 67 127
e 67 130
e 67 140
e 67 145
e 67 149
e 67 155
e 67 158
e 67 160
e 67 161
e 67 162
e 67 164
e 67 167
e 67 171
e 67 174
e 67 178
e 68 71
e 68 73
e 68 85
e 68 87
e 68 88
e 68 95
e 68 97
e 68 100
e 68 101
e 68 116
e 68 118
e 68 121
e 68 123
e 68 127
e 68 129
e 68 133
e 68 138
e 68 141
e 68 150
e 68 156
e 68 158
e 68 161
e 68 163
e 68 166
e 68 172
e 68 179
e 68 189
e 68 191
e 68 194
e 68 198
e 69 70
e 69 74
e 69 77
e 69 89
e 69 92
e 69 104
e 69 108
e 69 109
e 69 115
e 69 125
e 69 139
e 69 150
e 69 152
e 69 155
e 69 165
e 69 174
e 69 176
e 69 179
e 69 189
e 69 196
e 70 75
e 70 79
e 70 82
e 70 83
e 70 85
e 70 88
e 70 91
e 70 92
e 70 94
e 70 95
e 70 97
e 70 102
e 70 104
e 70 110
e 70 111
e 70 117
e 70 120
e 70 133
e 70 144
e 70 149
e 70 154
e 70 167
e 70 168
e 70 172
e 70 174
e 70 176
e 70 177
e 70 182
e 70 186
e 70 189
e 70 192
e 70 193
e 70 195
e 70 196
e 70 198
e 71 72
e 71 74
e 71 77
e 71 79
e 71 82
e 71 104
e 71 105
e 71 111
e 71 113
e 71 117
e 71 123
e 71 126
e 71 130
e 71 132
e 71 135
e 71 137
e 71 140
e 71 141
e 71 143
e 71 164
e 71 165
e 71 169
e 71 177
e 71 181
e 71 182
e 71 195
e 72 74
e 72 75
e 72 78
e 72 83
e 72 84
e 72 90
e 72 98
e 72 108
e 72 111
e 72 112
e 72 115
e 72 123
e 72 124
e 72 125
e 72 136
e 72 138
e 72 142
e 72 145
e 72 149
e 72 150
e 72 155
e 72 156
e 72 160
e 72 168
e 72 171
e 72 174
e 72 182
e 72 184
e 72 187
e 72 188
e 72 194
e 72 200
e 73 75
e 73 81
e 73 85
e 73 89
e 73 95
e 73 106
e 73 112
e 73 116
e 73 119
e 73 120
e 73 129
e 73 131
e 73 134
e 73 135
e 73 140
e 73 143
e 73 148
e 73 149
e 73 153
e 73 161
e 73 162
e 73 170
e 73 179
e 73 196
e 73 198
e 74 79
e 74 84
e 74 89
e 74 95
e 74 100
e 74 103
e 74 106
e 74 109
e 74 123
e 74 125
e 74 126
e 74 128
e 74 132
e 74 135
e 74 138
e 74 139
e 74 142
e 74 153
e 74 161
e 74 168
e 74 173
e 74 175
e 74 182
e 74 184
e 74 187
e 74 195
e 74 197
e 74 198
e 74 199
e 75 77
e 75 81
e 75 86
e 75 87
e 75 88
e 75 90
e 75 92
e 75 93
e 75 95
e 75 97
e 75 103
e 75 104
e 75 121
e 75 124
e 75 125
e 75 132
e 75 133
e 75 134
e 75 136
e 75 138
e 75 142
e 75 145
e 75 152
e 75 158
e 75 161
e 75 168
e 75 170
e 75 178
e 75 179
e 75 180
e 75 181
e 75 187
e 75 192
e 75 193
e 75 196
e 76 89
e 76 90
e 76 91
e 76 97
e 76 106
e 76 119
e 76 123
e 76 124
e 76 128
e 76 131
e 76 135
e 76 139
e 76 142
e 76 144
e 76 149
e 76 153
e 76 160
e 76 168
e 76 173
e 76 176
e 76 177
e 76 178
e 76 182
e 76 183
e 76 185
e 76 195
e 76 197
e 76 200
e 77 91
e 77 92
e 77 94
e 77 97
e 77 98
e 77 99
e 77 104
e 77 108
e 77 113
e 77 120
e 77 122
e 77 130
e 77 143
e 77 151
e 77 152
e 77 153
e 77 159
e 77 179
e 77 183
e 77 184
e 77 187
e 77 188
e 77 192
e 77 197
e 78 92
e 78 93
e 78 97
e 78 102
e 78 113
e 78 118
e 78 127
e 78 128
e 78 129
e 78 141
e 78 143
e 78 147
e 78 150
e 78 153
e 78 157
e 78 160
e 78 164
e 78 174
e 78 177
e 78 183
e 78 189
e 79 90
e 79 95
e 79 99
e 79 103
e 79 113
e 79 115
e 79 117
e 79 120
e 79 123
e 79 124
e 79 130
e 79 135
e 79 143
e 79 146
e 79 157
e 79 158
e 79 159
e 79 160
e 79 161
e 79 167
e 79 171
e 79 172
e 79 173
e 79 177
e 79 180
e 79 185
e 79 186
e 79 191
e 79 193
e 79 194
e 79 198
e 80 95
e 80 99
e 80 110
e 80 111
e 80 112
e 80 115
e 80 116
e 80 118
e 80 129
e 80 131
e 80 137
e 80 139
e 80 141
e 80 156
e 80 159
e 80 160
e 80 161
e 80 169
e 80 171
e 80 174
e 80 189
e 80 193
e 80 195
e 80 199
e 81 83
e 81 85
e 81 88
e 81 89
e 81 97
e 81 98
e 81 102
e 81 105
e 81 106
e 81 114
e 81 116
e 81 117
e 81 127
e 81 131
e 81 135
e 81 140
e 81 142
e 81 145
e 81 147
e 81 148
e 81 152
e 81 161
e 81 172
e 81 178
e 81 179
e 81 183
e 81 186
e 81 194
e 82 97
e 82 102
e 82 128
e 82 133
e 82 134
e 82 140
e 82 149
e 82 152
e 82 156
e 82 166
e 82 169
e 82 173
e 82 174
e 82 185
e 82 189
e 82 190
e 82 196
e 82 200
e 83 86
e 83 91
e 83 97
e 83 105
e 83 109
e 83 113
e 83 120
e 83 122
e 83 125
e 83 127
e 83 131
e 83 132
e 83 141
e 83 145
e 83 153
e 83 155
e 83 157
e 83 158
e 83 174
e 83 175
e 83 196
e 83 200
e 84 90
e 84 91
e 84 94
e 84 97
e 84 100
e 84 103
e 84 113
e 84 116
e 84 123
e 84 125
e 84 132
e 84 133
e 84 143
e 84 146
e 84 149
e 84 152
e 84 153
e 84 156
e 84 158
e 84 159
e 84 164
e 84 169
e 84 177
e 84 179
e 84 182
e 84 183
e 84 186
e 84 192
e 84 197
e 85 91
e 85 93
e 85 96
e 85 99
e 85 108
e 85 110
e 85 116
e 85 117
e 85 118
e 85 123
e 85 124
e 85 131
e 85 141
e 85 144
e 85 152
e 85 153
e 85 154
e 85 156
e 85 157
e 85 164
e 85 167
e 85 171
e 85 174
e 85 175
e 85 179
e 85 181
e 85 189
e 85 192
e 86 91
e 86 96
e 86 99
e 86 107
e 86 116
e 86 121
e 86 131
e 86 138
e 86 140
e 86 147
e 86 155
e 86 159
e 86 160
e 86 163
e 86 165
e 86 174
e 86 177
e 86 180
e 86 184
e 86 187
e 86 189
e 86 191
e 87 98
e 87 107
e 87 108
e 87 110
e 87 114
e 87 117
e 87 120
e 87 126
e 87 133
e 87 134
e 87 142
e 87 147
e 87 161
e 87 170
e 87 174
e 87 175
e 87 177
e 87 179
e 87 180
e 87 181
e 87 185
e 87 186
e 87 193
e 88 93
e 88 104
e 88 114
e 88 118
e 88 120
e 88 130
e 88 134
e 88 137
e 88 138
e 88 144
e 88 146
e 88 148
e 88 150
e 88 155
e 88 157
e 88 158
e 88 165
e 88 166
e 88 177
e 88 182
e 88 185
e 88 190
e 88 193
e 89 94
e 89 96
e 89 105
e 89 110
e 89 116
e 89 124
e 89 125
e 89 126
e 89 128
e 89 131
e 89 135
e 89 142
e 89 150
e 89 156
e 89 167
e 89 168
e 89 177
e 89 179
e 89 194
e 89 195
e 90 94
e 90 104
e 90 106
e 90 108
e 90 113
e 90 117
e 90 120
e 90 122
e 90 123
e 90 126
e 90 128
e 90 135
e 90 137
e 90 141
e 90 143
e 90 157
e 90 161
e 90 163
e 90 164
e 90 166
e 90 167
e 90 169
e 90 189
e 90 193
e 91 92
e 91 96
e 91 123
e 91 130
e 91 141
e 91 145
e 91 147
e 91 149
e 91 151
e 91 156
e 91 162
e 91 163
e 91 165
e 91 178
e 91 180
e 91 184
e 91 188
e 91 193
e 91 196
e 91 200
e 92 93
e 92 104
e 92 109
e 92 111
e 92 113
e 92 118
e 92 123
e 92 124
e 92 126
e 92 131
e 92 140
e 92 141
e 92 146
e 92 151
e 92 152
e 92 155
e 92 164
e 92 169
e 92 173
e 92 176
e 92 190
e 92 200
e 93 96
e 93 108
e 93 122
e 93 123
e 93 124
e 93 125
e 93 127
e 93 128
e 93 148
e 93 150
e 93 153
e 93 154
e 93 157
e 93 163
e 93 165
e 93 168
e 93 171
e 93 175
e 93 178
e 93 181
e 93 182
e 94 97
e 94 100
e 94 103
e 94 104
e 94 109
e 94 112
e 94 118
e 94 119
e 94 130
e 94 145
e 94 150
e 94 152
e 94 154
e 94 162
e 94 165
e 94 173
e 94 176
e 94 177
e 94 178
e 94 180
e 94 187
e 94 200
e 95 98
e 95 108
e 95 117
e 95 119
e 95 124
e 95 125
e 95 128
e 95 132
e 95 140
e 95 142
e 95 146
e 95 153
e 95 156
e 95 166
e 95 179
e 95 184
e 95 200
e 96 102
e 96 103
e 96 105
e 96 111
e 96 131
e 96 135
e 96 138
e 96 148
e 96 149
e 96 154
e 96 156
e 96 158
e 96 168
e 96 169
e 96 176
e 96 182
e 96 183
e 97 101
e 97 115
e 97 120
e 97 129
e 97 131
e 97 135
e 97 143
e 97 161
e 97 164
e 97 180
e 97 181
e 97 183
e 97 184
e 97 185
e 97 196
e 97 200
e 98 100
e 98 102
e 98 104
e 98 116
e 98 117
e 98 122
e 98 125
e 98 129
e 98 130
e 98 131
e 98 133
e 98 139
e 98 142
e 98 143
e 98 144
e 98 165
e 98 169
e 98 170
e 98 175
e 98 183
e 98 185
e 98 188
e 98 190
e 98 194
e 98 198
e 98 200
e 99 101
e 99 107
e 99 111
e 99 114
e 99 116
e 99 117
e 99 118
e 99 121
e 99 123
e 99 129
e 99 137
e 99 139
e 99 142
e 99 146
e 99 148
e 99 167
e 99 168
e 99 181
e 99 182
e 99 183
e 99 184
e 99 185
e 99 188
e 100 107
e 100 108
e 100 110
e 100 116
e 100 118
e 100 120
e 100 122
e 100 125
e 100 130
e 100 136
e 100 138
e 100 139
e 100 142
e 100 146
e 100 147
e 100 150
e 100 151
e 100 152
e 100 158
e 100 162
e 100 163
e 100 171
e 100 172
e 100 173
e 100 176
e 100 184
e 100 185
e 100 187
e 100 188
e 100 190
e 100 195
e 100 196
e 100 198
e 101 104
e 101 107
e 101 109
e 101 111
e 101 118
e 101 136
e 101 144
e 101 147
e 101 151
e 101 154
e 101 156
e 101 181
e 101 184
e 101 189
e 101 196
e 102 104
e 102 107
e 102 112
e 102 127
e 102 131
e 102 134
e 102 139
e 102 145
e 102 147
e 102 153
e 102 160
e 102 166
e 102 180
e 102 182
e 102 183
e 102 184
e 102 192
e 102 197
e 102 198
e 103 104
e 103 106
e 103 107
e 103 110
e 103 111
e 103 114
e 103 118
e 103 122
e 103 123
e 103 130
e 103 146
e 103 149
e 103 155
e 103 164
e 103 174
e 103 184
e 103 188
e 103 199
e 104 106
e 104 109
e 104 110
e 104 111
e 104 114
e 104 115
e 104 117
e 104 118
e 104 120
e 104 131
e 104 135
e 104 140
e 104 145
e 104 148
e 104 150
e 104 152
e 104 154
e 104 158
e 104 160
e 104 161
e 104 164
e 104 169
e 104 170
e 104 173
e 104 178
e 104 181
e 104 183
e 104 195
e 104 197
e 105 121
e 105 122
e 105 123
e 105 126
e 105 139
e 105 140
e 105 142
e 105 161
e 105 163
e 105 170
e 105 178
e 105 187
e 105 189
e 105 190
e 105 194
e 105 197
e 105 199
e 106 108
e 106 113
e 106 115
e 106 130
e 106 138
e 106 141
e 106 144
e 106 163
e 106 168
e 106 186
e 106 189
e 107 109
e 107 113
e 107 119
e 107 120
e 107 121
e 107 132
e 107 133
e 107 140
e 107 150
e 107 153
e 107 157
e 107 175
e 107 176
e 107 177
e 107 178
e 107 187
e 107 188
e 107 193
e 107 196
e 107 200
e 108 112
e 108 114
e 108 127
e 108 137
e 108 139
e 108 143
e 108 157
e 108 168
e 108 173
e 108 181
e 108 182
e 108 186
e 108 187
e 108 191
e 108 192
e 108 196
e 109 110
e 109 125
e 109 133
e 109 136
e 109 137
e 109 139
e 109 140
e 109 146
e 109 148
e 109 151
e 109 155
e 109 165
e 109 167
e 109 168
e 109 173
e 109 174
e 109 180
e 109 181
e 109 182
e 109 188
e 109 192
e 109 200
e 110 111
e 110 112
e 110 125
e 110 126
e 110 128
e 110 130
e 110 132
e 110 133
e 110 142
e 110 148
e 110 149
e 110 154
e 110 156
e 110 157
e 110 163
e 110 164
e 110 169
e 110 170
e 110 178
e 110 181
e 110 188
e 110 189
e 110 195
e 110 197
e 111 112
e 111 125
e 111 126
e 111 127
e 111 142
e 111 145
e 111 155
e 111 157
e 111 158
e 111 170
e 111 180
e 111 185
e 111 190
e 111 197
e 112 121
e 112 128
e 112 138
e 112 143
e 112 153
e 112 163
e 112 171
e 112 189
e 112 190
e 112 193
e 112 194
e 113 120
e 113 121
e 113 127
e 113 130
e 113 134
e 113 137
e 113 145
e 113 149
e 113 152
e 113 160
e 113 161
e 113 164
e 113 166
e 113 167
e 113 175
e 113 182
e 113 184
e 114 120
e 114 124
e 114 127
e 114 130
e 114 140
e 114 143
e 114 152
e 114 154
e 114 158
e 114 163
e 114 168
e 114 175
e 114 176
e 114 177
e 114 179
e 114 184
e 114 195
e 115 117
e 115 125
e 115 126
e 115 129
e 115 131
e 115 134
e 115 136
e 115 139
e 115 145
e 115 154
e 115 161
e 115 166
e 115 175
e 115 177
e 115 186
e 115 192
e 115 193
e 115 194
e 115 197
e 115 198
e 116 122
e 116 125
e 116 126
e 116 128
e 116 136
e 116 137
e 116 138
e 116 139
e 116 141
e 116 148
e 116 152
e 116 154
e 116 165
e 116 167
e 116 174
e 116 175
e 116 180
e 116 185
e 116 190
e 116 195
e 117 121
e 117 122
e 117 126
e 117 127
e 117 129
e 117 141
e 117 149
e 117 153
e 117 161
e 117 162
e 117 166
e 117 171
e 117 196
e 117 198
e 118 119
e 118 120
e 118 123
e 118 124
e 118 128
e 118 129
e 118 137
e 118 144
e 118 148
e 118 152
e 118 156
e 118 161
e 118 162
e 118 169
e 118 174
e 118 179
e 118 180
e 118 187
e 118 193
e 118 195
e 119 124
e 119 127
e 119 132
e 119 134
e 119 135
e 119 146
e 119 156
e 119 158
e 119 163
e 119 165
e 119 173
e 119 178
e 119 179
e 119 180
e 119 182
e 120 126
e 120 127
e 120 134
e 120 135
e 120 149
e 120 154
e 120 161
e 120 165
e 120 167
e 120 170
e 120 171
e 120 179
e 120 192
e 120 194
e 120 200
e 121 130
e 121 139
e 121 142
e 121 145
e 121 148
e 121 150
e 121 151
e 121 160
e 121 173
e 121 182
e 121 186
e 121 187
e 121 190
e 121 193
e 121 197
e 122 125
e 122 126
e 122 127
e 122 133
e 122 138
e 122 139
e 122 140
e 122 141
e 122 143
e 122 145
e 122 149
e 122 150
e 122 153
e 122 172
e 122 179
e 122 180
e 122 191
e 122 193
e 123 126
e 123 129
e 123 135
e 123 138
e 123 144
e 123 147
e 123 152
e 123 155
e 123 157
e 123 160
e 123 163
e 123 172
e 123 173
e 123 175
e 123 177
e 123 184
e 123 187
e 123 195
e 123 198
e 123 200
e 124 130
e 124 140
e 124 144
e 124 146
e 124 147
e 124 154
e 124 156
e 124 157
e 124 166
e 124 167
e 124 168
e 124 189
e 124 192
e 124 196
e 125 126
e 125 128
e 125 133
e 125 141
e 125 142
e 125 144
e 125 151
e 125 154
e 125 155
e 125 156
e 125 158
e 125 163
e 125 164
e 125 168
e 125 171
e 125 182
e 125 189
e 125 194
e 125 197
e 126 127
e 126 142
e 126 145
e 126 156
e 126 166
e 126 169
e 126 173
e 126 174
e 126 175
e 126 176
e 126 187
e 126 192
e 127 130
e 127 131
e 127 138
e 127 139
e 127 142
e 127 147
e 127 148
e 127 155
e 127 157
e 127 159
e 127 165
e 127 168
e 127 173
e 127 176
e 127 178
e 127 183
e 127 186
e 127 192
e 127 194
e 127 196
e 127 199
e 128 138
e 128 139
e 128 146
e 128 149
e 128 150
e 128 151
e 128 159
e 128 162
e 128 164
e 128 165
e 128 170
e 128 174
e 128 189
e 128 190
e 128 193
e 128 195
e 128 196
e 129 142
e 129 143
e 129 146
e 129 147
e 129 152
e 129 167
e 129 169
e 129 184
e 129 189
e 129 194
e 129 197
e 130 139
e 130 156
e 130 157
e 130 158
e 130 163
e 130 166
e 130 178
e 130 179
e 130 189
e 130 193
e 130 196
e 130 200
e 131 134
e 131 142
e 131 145
e 131 148
e 131 151
e 131 152
e 131 153
e 131 161
e 131 166
e 131 171
e 131 179
e 131 180
e 131 184
e 131 187
e 131 189
e 131 193
e 131 199
e 131 200
e 132 140
e 132 142
e 132 143
e 132 145
e 132 148
e 132 155
e 132 168
e 132 171
e 132 176
e 132 191
e 132 195
e 133 135
e 133 138
e 133 141
e 133 143
e 133 147
e 133 149
e 133 151
e 133 152
e 133 155
e 133 162
e 133 173
e 133 174
e 133 175
e 133 180
e 133 188
e 133 190
e 133 192
e 133 193
e 133 196
e 133 197
e 134 135
e 134 138
e 134 144
e 134 167
e 134 179
e 134 184
e 134 188
e 134 197
e 135 138
e 135 150
e 135 152
e 135 156
e 135 158
e 135 160
e 135 166
e 135 169
e 135 178
e 135 187
e 135 193
e 135 196
e 136 138
e 136 139
e 136 146
e 136 159
e 136 162
e 136 166
e 136 168
e 136 175
e 136 176
e 136 180
e 136 188
e 136 192
e 136 195
e 136 199
e 136 200
e 137 140
e 137 141
e 137 148
e 137 164
e 137 165
e 137 167
e 137 169
e 137 176
e 137 182
e 137 184
e 137 185
e 137 193
e 137 196
e 138 139
e 138 142
e 138 147
e 138 151
e 138 156
e 138 160
e 138 162
e 138 163
e 138 189
e 138 196
e 138 197
e 139 140
e 139 151
e 139 162
e 139 172
e 139 178
e 139 182
e 139 183
e 139 184
e 139 187
e 139 191
e 139 192
e 139 194
e 139 197
e 140 147
e 140 150
e 140 162
e 140 163
e 140 165
e 140 171
e 140 176
e 140 177
e 140 178
e 140 192
e 140 195
e 141 146
e 141 152
e 141 154
e 141 157
e 141 161
e 141 167
e 141 185
e 141 187
e 141 193
e 141 196
e 141 200
e 142 144
e 142 151
e 142 154
e 142 155
e 142 158
e 142 169
e 142 174
e 142 185
e 142 191
e 143 147
e 143 157
e 143 162
e 143 163
e 143 166
e 143 174
e 143 189
e 143 191
e 144 148
e 144 149
e 144 150
e 144 159
e 144 164
e 144 168
e 144 172
e 144 173
e 144 176
e 144 177
e 144 178
e 144 183
e 144 184
e 144 192
e 145 150
e 145 151
e 145 168
e 145 172
e 145 176
e 145 177
e 145 179
e 145 181
e 145 190
e 145 192
e 145 195
e 145 196
e 145 197
e 145 200
e 146 157
e 146 159
e 146 166
e 146 167
e 146 170
e 146 177
e 146 179
e 146 187
e 146 189
e 146 193
e 146 194
e 146 197
e 147 148
e 147 167
e 147 176
e 147 180
e 147 181
e 147 184
e 147 187
e 147 191
e 147 194
e 147 197
e 147 198
e 148 152
e 148 157
e 148 163
e 148 169
e 148 178
e 148 193
e 148 199
e 149 152
e 149 167
e 149 169
e 149 185
e 149 186
e 149 187
e 149 194
e 150 159
e 150 160
e 150 167
e 150 172
e 150 173
e 150 174
e 150 176
e 150 177
e 150 178
e 150 184
e 150 187
e 150 188
e 150 191
e 151 163
e 151 171
e 151 172
e 151 178
e 151 183
e 151 184
e 151 200
e 152 158
e 152 161
e 152 163
e 152 165
e 152 178
e 152 179
e 152 181
e 152 190
e 152 192
e 152 198
e 152 200
e 153 175
e 153 176
e 153 179
e 153 184
e 153 187
e 153 190
e 153 199
e 154 164
e 154 169
e 154 171
e 154 176
e 154 180
e 154 181
e 154 182
e 154 183
e 154 185
e 154 190
e 154 192
e 154 194
e 155 159
e 155 162
e 155 178
e 155 183
e 155 184
e 155 185
e 155 188
e 155 189
e 155 190
e 155 194
e 155 195
e 155 199
e 155 200
e 156 167
e 156 169
e 156 180
e 156 181
e 156 185
e 156 187
e 156 190
e 156 192
e 157 164
e 157 169
e 157 173
e 157 179
e 157 182
e 157 188
e 157 193
e 157 195
e 157 197
e 157 198
e 157 199
e 158 170
e 158 173
e 158 183
e 158 186
e 158 188
e 158 189
e 158 190
e 158 194
e 158 196
e 158 197
e 158 200
e 159 165
e 159 169
e 159 170
e 159 178
e 159 181
e 159 193
e 160 177
e 160 179
e 160 181
e 160 186
e 160 193
e 160 198
e 161 162
e 161 168
e 161 171
e 161 178
e 161 182
e 161 184
e 161 185
e 161 190
e 161 195
e 161 196
e 161 197
e 161 198
e 161 199
e 162 171
e 162 176
e 162 178
e 162 194
e 163 164
e 163 168
e 163 171
e 163 181
e 163 182
e 163 187
e 163 193
e 163 194
e 163 196
e 163 197
e 163 199
e 163 200
e 164 165
e 164 170
e 164 173
e 164 176
e 164 182
e 164 183
e 164 185
e 164 190
e 164 191
e 164 192
e 165 166
e 165 168
e 165 169
e 165 173
e 165 179
e 165 183
e 165 191
e 165 193
e 165 199
e 166 168
e 166 170
e 166 174
e 166 177
e 166 178
e 166 183
e 166 185
e 166 189
e 166 196
e 166 198
e 166 199
e 167 172
e 167 184
e 167 185
e 167 191
e 167 192
e 167 196
e 168 169
e 168 174
e 168 178
e 168 182
e 168 187
e 168 195
e 169 175
e 169 176
e 169 178
e 169 179
e 169 180
e 169 184
e 169 188
e 169 198
e 170 175
e 170 180
e 170 182
e 170 183
e 170 186
e 170 189
e 170 192
e 170 193
e 170 194
e 171 179
e 171 184
e 171 185
e 171 190
e 171 191
e 171 197
e 171 198
e 171 200
e 172 179
e 172 182
e 172 185
e 172 189
e 172 194
e 173 175
e 173 179
e 173 181
e 173 182
e 173 185
e 173 188
e 173 193
e 173 195
e 173 199
e 174 175
e 174 176
e 174 179
e 174 187
e 174 190
e 175 176
e 175 182
e 175 193
e 175 195
e 175 196
e 175 198
e 176 187
e 176 193
e 176 199
e 177 178
e 177 180
e 177 188
e 177 193
e 177 195
e 177 196
e 177 197
e 177 200
e 178 179
e 178 183
e 178 185
e 178 190
e 178 191
e 178 192
e 178 200
e 179 185
e 179 193
e 179 195
e 180 181
e 180 182
e 180 183
e 180 191
e 180 195
e 180 199
e 181 184
e 181 186
e 181 193
e 181 195
e 182 194
e 183 186
e 183 200
e 184 185
e 184 190
e 184 192
e 184 194
e 184 197
e 185 187
e 185 190
e 185 194
e 185 196
e 186 188
e 186 190
e 186 194
e 186 196
e 186 197
e 187 196
e 187 197
e 188 191
e 188 194
e 188 200
e 189 190
e 189 193
e 189 196
e 190 193
e 191 195
e 192 196
e 193 199
e 193 200
e 195 198
e 196 198
